120 150

48
46
43
48
48
43
45
49
45
49
43
42
49
45
50
59
54
49
43
59
51
40
50
41
60
41
49
40
40
41
52
58
40
40
53
58
53
47
43
60
60
45
45
43
57
50
45
45
60
52
53
60
45
45
49
53
48
40
58
54
45
51
49
58
43
40
58
53
51
46
41
55
55
50
45
41
41
41
52
46
52
41
52
58
42
50
51
48
52
52
46
44
56
55
45
50
49
42
59
52
56
54
47
49
41
52
60
45
45
41
50
60
60
54
51
45
48
48
54
60